c Reduced graph for miles250_0 generated by Cyril Grelier
p edge 79 271
e 1 2
e 1 14
e 1 35
e 1 36
e 1 39
e 1 41
e 1 42
e 1 46
e 1 50
e 1 57
e 1 64
e 1 65
e 1 73
e 1 77
e 2 14
e 2 16
e 2 20
e 2 35
e 2 42
e 2 46
e 2 50
e 2 53
e 2 57
e 2 65
e 2 76
e 2 77
e 3 15
e 3 21
e 3 25
e 3 54
e 3 59
e 3 62
e 3 74
e 3 78
e 4 7
e 4 15
e 4 37
e 4 61
e 5 11
e 5 31
e 5 38
e 6 60
e 6 67
e 6 68
e 7 18
e 7 44
e 8 20
e 8 60
e 8 67
e 8 68
e 8 72
e 8 76
e 9 10
e 9 27
e 9 43
e 9 66
e 9 75
e 10 27
e 10 66
e 10 75
e 11 31
e 11 38
e 12 30
e 12 44
e 13 20
e 13 25
e 13 35
e 13 40
e 13 47
e 13 58
e 13 62
e 13 63
e 13 71
e 13 72
e 13 76
e 14 36
e 14 39
e 14 42
e 14 46
e 14 50
e 14 57
e 14 65
e 14 73
e 15 21
e 15 25
e 15 37
e 15 54
e 15 61
e 15 78
e 16 50
e 16 53
e 16 57
e 16 76
e 16 77
e 17 22
e 17 48
e 17 51
e 17 69
e 17 79
e 18 44
e 20 35
e 20 40
e 20 50
e 20 53
e 20 57
e 20 60
e 20 63
e 20 71
e 20 72
e 20 76
e 20 77
e 21 25
e 21 54
e 21 59
e 21 61
e 21 62
e 21 74
e 21 78
e 22 48
e 22 51
e 22 56
e 22 69
e 22 79
e 23 26
e 23 45
e 23 49
e 23 55
e 23 70
e 24 28
e 24 29
e 24 52
e 25 40
e 25 47
e 25 54
e 25 59
e 25 61
e 25 62
e 25 63
e 25 71
e 26 45
e 26 49
e 26 55
e 26 70
e 27 43
e 27 66
e 27 75
e 28 29
e 28 30
e 28 52
e 29 52
e 30 52
e 31 38
e 35 39
e 35 40
e 35 41
e 35 50
e 35 53
e 35 57
e 35 58
e 35 63
e 35 64
e 35 65
e 35 76
e 35 77
e 36 42
e 36 46
e 36 73
e 37 61
e 37 74
e 37 78
e 39 41
e 39 46
e 39 50
e 39 57
e 39 58
e 39 64
e 39 65
e 39 73
e 39 77
e 40 47
e 40 58
e 40 59
e 40 62
e 40 63
e 40 71
e 41 50
e 41 57
e 41 58
e 41 64
e 41 65
e 42 46
e 42 65
e 42 73
e 43 66
e 43 75
e 46 50
e 46 53
e 46 57
e 46 65
e 46 73
e 46 77
e 47 54
e 47 58
e 47 59
e 47 62
e 47 63
e 47 71
e 48 51
e 48 56
e 48 69
e 48 79
e 49 55
e 49 70
e 49 74
e 49 78
e 50 53
e 50 57
e 50 65
e 50 76
e 50 77
e 51 56
e 51 69
e 51 79
e 53 57
e 53 60
e 53 76
e 53 77
e 54 59
e 54 61
e 54 62
e 54 71
e 55 70
e 55 74
e 55 78
e 56 69
e 56 79
e 57 58
e 57 64
e 57 65
e 57 76
e 57 77
e 58 62
e 58 63
e 58 71
e 59 62
e 59 63
e 59 71
e 60 67
e 60 68
e 60 72
e 60 76
e 60 77
e 62 63
e 62 71
e 63 71
e 64 65
e 64 73
e 65 73
e 65 77
e 66 75
e 67 68
e 67 72
e 68 72
e 68 76
e 69 79
e 70 74
e 70 78
e 71 72
e 72 76
e 74 78
e 76 77
